\ENCODING=ISO-8859-1
\Problem name: ilog.cplex

Minimize
 obj: 600 x0,1 + 1200 x0,2 + 1800 x0,3 + 2400 x0,4 + 3000 x0,5 + 300 x0,6
      + 900 x0,7 + 1500 x0,8 + 2100 x0,9 + 2700 x0,10 + 3300 x0,11 + 300 x0,12
      + 900 x0,13 + 1500 x0,14 + 2100 x0,15 + 2700 x0,16 + 3300 x0,17
      + 300 x0,18 + 900 x0,19 + 1500 x0,20 + 2100 x0,21 + 2700 x0,22
      + 3300 x0,23 + 300 x0,24 + 900 x0,25 + 1500 x0,26 + 2100 x0,27
      + 2700 x0,28 + 3300 x0,29 + 300 x1,0 + 900 x1,1 + 1500 x1,2 + 2100 x1,3
      + 2700 x1,4 + 3300 x1,5 + 600 x1,7 + 1200 x1,8 + 1800 x1,9 + 2400 x1,10
      + 3000 x1,11 + 600 x1,13 + 1200 x1,14 + 1800 x1,15 + 2400 x1,16
      + 3000 x1,17 + 300 x1,18 + 900 x1,19 + 1500 x1,20 + 2100 x1,21
      + 2700 x1,22 + 3300 x1,23 + 300 x1,24 + 900 x1,25 + 1500 x1,26
      + 2100 x1,27 + 2700 x1,28 + 3300 x1,29 + 300 x2,0 + 900 x2,1 + 1500 x2,2
      + 2100 x2,3 + 2700 x2,4 + 3300 x2,5 + 300 x2,6 + 900 x2,7 + 1500 x2,8
      + 2100 x2,9 + 2700 x2,10 + 3300 x2,11 + 300 x2,12 + 900 x2,13
      + 1500 x2,14 + 2100 x2,15 + 2700 x2,16 + 3300 x2,17 + 600 x2,19
      + 1200 x2,20 + 1800 x2,21 + 2400 x2,22 + 3000 x2,23 + 600 x2,25
      + 1200 x2,26 + 1800 x2,27 + 2400 x2,28 + 3000 x2,29 + 25000 y0 + 25000 y1
      + 25000 y2 + 25000 y3 + 25000 y4
Subject To
 c1:   x0,0 + x0,1 + x0,2 + x0,3 + x0,4 + x0,5 + x1,0 + x1,1 + x1,2 + x1,3
       + x1,4 + x1,5 + x2,0 + x2,1 + x2,2 + x2,3 + x2,4 + x2,5 + y0  = 1
 c2:   x0,6 + x0,7 + x0,8 + x0,9 + x0,10 + x0,11 + x1,6 + x1,7 + x1,8 + x1,9
       + x1,10 + x1,11 + x2,6 + x2,7 + x2,8 + x2,9 + x2,10 + x2,11 + y1  = 1
 c3:   x0,12 + x0,13 + x0,14 + x0,15 + x0,16 + x0,17 + x1,12 + x1,13 + x1,14
       + x1,15 + x1,16 + x1,17 + x2,12 + x2,13 + x2,14 + x2,15 + x2,16 + x2,17
       + y2  = 1
 c4:   x0,18 + x0,19 + x0,20 + x0,21 + x0,22 + x0,23 + x1,18 + x1,19 + x1,20
       + x1,21 + x1,22 + x1,23 + x2,18 + x2,19 + x2,20 + x2,21 + x2,22 + x2,23
       + y3  = 1
 c5:   x0,24 + x0,25 + x0,26 + x0,27 + x0,28 + x0,29 + x1,24 + x1,25 + x1,26
       + x1,27 + x1,28 + x1,29 + x2,24 + x2,25 + x2,26 + x2,27 + x2,28 + x2,29
       + y4  = 1
 c6:    = 0
 c7:   x0,0 + z0,0,0  = 1
 c8:    = 0
 c9:   x1,6 + z1,1,0  = 1
 c10:   = 0
 c11:  x2,24 + z2,2,0  = 1
 c12:  - x0,1 + z0,0,0 - z0,0,1  = 0
 c13:  - x0,2 + z0,0,1 - z0,0,2  = 0
 c14:  - x0,3 + z0,0,2 - z0,0,3  = 0
 c15:  - x0,4 + z0,0,3 - z0,0,4  = 0
 c16:  - x0,5 + z0,0,4 - z0,0,5  = 0
 c17:  x0,12 + z0,0,5 - z0,0,6  = 0
 c18:  x0,13 + z0,0,6 - z0,0,7  = 0
 c19:  x0,14 + z0,0,7 - z0,0,8  = 0
 c20:  x0,15 + z0,0,8 - z0,0,9  = 0
 c21:  x0,16 + z0,0,9 - z0,0,10  = 0
 c22:  x0,17 + z0,0,10 - z0,0,11  = 0
 c23:  x0,18 + z0,0,11 - z0,0,12  = 0
 c24:  x0,19 + z0,0,12 - z0,0,13  = 0
 c25:  x0,20 + z0,0,13 - z0,0,14  = 0
 c26:  x0,21 + z0,0,14 - z0,0,15  = 0
 c27:  x0,22 + z0,0,15 - z0,0,16  = 0
 c28:  x0,23 + z0,0,16 - z0,0,17  = 0
 c29:  z0,0,18  = 0
 c30:   = 0
 c31:  - x0,6 - z0,1,0  = 0
 c32:  - x0,7 + z0,1,0 - z0,1,1  = 0
 c33:  - x0,8 + z0,1,1 - z0,1,2  = 0
 c34:  - x0,9 + z0,1,2 - z0,1,3  = 0
 c35:  - x0,10 + z0,1,3 - z0,1,4  = 0
 c36:  - x0,11 + z0,1,4 - z0,1,5  = 0
 c37:  x0,0 + x0,24 + z0,1,5 - z0,1,6  = 0
 c38:  x0,1 + x0,25 + z0,1,6 - z0,1,7  = 0
 c39:  x0,2 + x0,26 + z0,1,7 - z0,1,8  = 0
 c40:  x0,3 + x0,27 + z0,1,8 - z0,1,9  = 0
 c41:  x0,4 - x0,18 + x0,28 + z0,1,9 - z0,1,10  = 0
 c42:  x0,5 - x0,19 + x0,29 + z0,1,10 - z0,1,11  = 0
 c43:  - x0,20 + z0,1,11 - z0,1,12  = 0
 c44:  - x0,21 + z0,1,12 - z0,1,13  = 0
 c45:  - x0,22 + z0,1,13 - z0,1,14  = 0
 c46:  - x0,23 + z0,1,14 - z0,1,15  = 0
 c47:  z0,1,16  = 0
 c48:   = 0
 c49:  - x0,24 - z0,2,0  = 0
 c50:  - x0,25 + z0,2,0 - z0,2,1  = 0
 c51:  - x0,26 + z0,2,1 - z0,2,2  = 0
 c52:  - x0,27 + z0,2,2 - z0,2,3  = 0
 c53:  x0,6 - x0,28 + z0,2,3 - z0,2,4  = 0
 c54:  x0,7 - x0,29 + z0,2,4 - z0,2,5  = 0
 c55:  x0,8 + z0,2,5 - z0,2,6  = 0
 c56:  x0,9 + z0,2,6 - z0,2,7  = 0
 c57:  x0,10 + z0,2,7 - z0,2,8  = 0
 c58:  x0,11 + z0,2,8 - z0,2,9  = 0
 c59:  - x0,12 + z0,2,9 - z0,2,10  = 0
 c60:  - x0,13 + z0,2,10 - z0,2,11  = 0
 c61:  - x0,14 + z0,2,11 - z0,2,12  = 0
 c62:  - x0,15 + z0,2,12 - z0,2,13  = 0
 c63:  - x0,16 + z0,2,13 - z0,2,14  = 0
 c64:  - x0,17 + z0,2,14 - z0,2,15  = 0
 c65:  z0,2,16  = 0
 c66:   = 0
 c67:  z0,0,17 + z0,1,15 + z0,2,15  = 1
 c68:  z0,0,18 + z0,1,16 + z0,2,16  = 0
 c69:  - x1,0 - z1,0,0  = 0
 c70:  - x1,1 + z1,0,0 - z1,0,1  = 0
 c71:  - x1,2 + z1,0,1 - z1,0,2  = 0
 c72:  - x1,3 + z1,0,2 - z1,0,3  = 0
 c73:  - x1,4 + z1,0,3 - z1,0,4  = 0
 c74:  - x1,5 + z1,0,4 - z1,0,5  = 0
 c75:  x1,12 + z1,0,5 - z1,0,6  = 0
 c76:  x1,13 + z1,0,6 - z1,0,7  = 0
 c77:  x1,14 + z1,0,7 - z1,0,8  = 0
 c78:  x1,15 + z1,0,8 - z1,0,9  = 0
 c79:  x1,16 + z1,0,9 - z1,0,10  = 0
 c80:  x1,17 + z1,0,10 - z1,0,11  = 0
 c81:  x1,18 + z1,0,11 - z1,0,12  = 0
 c82:  x1,19 + z1,0,12 - z1,0,13  = 0
 c83:  x1,20 + z1,0,13 - z1,0,14  = 0
 c84:  x1,21 + z1,0,14 - z1,0,15  = 0
 c85:  x1,22 + z1,0,15 - z1,0,16  = 0
 c86:  x1,23 + z1,0,16 - z1,0,17  = 0
 c87:  z1,0,18  = 0
 c88:   = 0
 c89:  - x1,7 + z1,1,0 - z1,1,1  = 0
 c90:  - x1,8 + z1,1,1 - z1,1,2  = 0
 c91:  - x1,9 + z1,1,2 - z1,1,3  = 0
 c92:  - x1,10 + z1,1,3 - z1,1,4  = 0
 c93:  - x1,11 + z1,1,4 - z1,1,5  = 0
 c94:  x1,0 + x1,24 + z1,1,5 - z1,1,6  = 0
 c95:  x1,1 + x1,25 + z1,1,6 - z1,1,7  = 0
 c96:  x1,2 + x1,26 + z1,1,7 - z1,1,8  = 0
 c97:  x1,3 + x1,27 + z1,1,8 - z1,1,9  = 0
 c98:  x1,4 - x1,18 + x1,28 + z1,1,9 - z1,1,10  = 0
 c99:  x1,5 - x1,19 + x1,29 + z1,1,10 - z1,1,11  = 0
 c100: - x1,20 + z1,1,11 - z1,1,12  = 0
 c101: - x1,21 + z1,1,12 - z1,1,13  = 0
 c102: - x1,22 + z1,1,13 - z1,1,14  = 0
 c103: - x1,23 + z1,1,14 - z1,1,15  = 0
 c104: z1,1,16  = 0
 c105:  = 0
 c106: - x1,24 - z1,2,0  = 0
 c107: - x1,25 + z1,2,0 - z1,2,1  = 0
 c108: - x1,26 + z1,2,1 - z1,2,2  = 0
 c109: - x1,27 + z1,2,2 - z1,2,3  = 0
 c110: x1,6 - x1,28 + z1,2,3 - z1,2,4  = 0
 c111: x1,7 - x1,29 + z1,2,4 - z1,2,5  = 0
 c112: x1,8 + z1,2,5 - z1,2,6  = 0
 c113: x1,9 + z1,2,6 - z1,2,7  = 0
 c114: x1,10 + z1,2,7 - z1,2,8  = 0
 c115: x1,11 + z1,2,8 - z1,2,9  = 0
 c116: - x1,12 + z1,2,9 - z1,2,10  = 0
 c117: - x1,13 + z1,2,10 - z1,2,11  = 0
 c118: - x1,14 + z1,2,11 - z1,2,12  = 0
 c119: - x1,15 + z1,2,12 - z1,2,13  = 0
 c120: - x1,16 + z1,2,13 - z1,2,14  = 0
 c121: - x1,17 + z1,2,14 - z1,2,15  = 0
 c122: z1,2,16  = 0
 c123:  = 0
 c124: z1,0,17 + z1,1,15 + z1,2,15  = 1
 c125: z1,0,18 + z1,1,16 + z1,2,16  = 0
 c126:  = 0
 c127: x2,0 + z2,0,0  = 0
 c128: z2,0,0  = 0
 c129: x2,1 + z2,0,1  = 0
 c130: z2,0,1  = 0
 c131: x2,2 + z2,0,2  = 0
 c132: z2,0,2  = 0
 c133: x2,3 + z2,0,3  = 0
 c134: - x2,4 + z2,0,3 - z2,0,4  = 0
 c135: - x2,5 + z2,0,4 - z2,0,5  = 0
 c136: x2,12 + z2,0,5 - z2,0,6  = 0
 c137: x2,13 + z2,0,6 - z2,0,7  = 0
 c138: x2,14 + z2,0,7 - z2,0,8  = 0
 c139: x2,15 + z2,0,8 - z2,0,9  = 0
 c140: x2,16 + z2,0,9 - z2,0,10  = 0
 c141: x2,17 + z2,0,10 - z2,0,11  = 0
 c142: x2,18 + z2,0,11 - z2,0,12  = 0
 c143: x2,19 + z2,0,12 - z2,0,13  = 0
 c144: x2,20 + z2,0,13 - z2,0,14  = 0
 c145: x2,21 + z2,0,14 - z2,0,15  = 0
 c146: x2,22 + z2,0,15 - z2,0,16  = 0
 c147: x2,23 + z2,0,16 - z2,0,17  = 0
 c148: z2,0,17 - z2,0,18  = 0
 c149:  = 0
 c150: x2,6 + z2,1,0  = 0
 c151: z2,1,0  = 0
 c152: x2,7 + z2,1,1  = 0
 c153: z2,1,1  = 0
 c154: x2,8 + z2,1,2  = 0
 c155: z2,1,2  = 0
 c156: x2,9 + z2,1,3  = 0
 c157: - x2,10 + z2,1,3 - z2,1,4  = 0
 c158: - x2,11 + z2,1,4 - z2,1,5  = 0
 c159: x2,0 + x2,24 + z2,1,5 - z2,1,6  = 0
 c160: x2,1 + x2,25 + z2,1,6 - z2,1,7  = 0
 c161: x2,2 + x2,26 + z2,1,7 - z2,1,8  = 0
 c162: x2,3 + x2,27 + z2,1,8 - z2,1,9  = 0
 c163: x2,4 - x2,18 + x2,28 + z2,1,9 - z2,1,10  = 0
 c164: x2,5 - x2,19 + x2,29 + z2,1,10 - z2,1,11  = 0
 c165: - x2,20 + z2,1,11 - z2,1,12  = 0
 c166: - x2,21 + z2,1,12 - z2,1,13  = 0
 c167: - x2,22 + z2,1,13 - z2,1,14  = 0
 c168: - x2,23 + z2,1,14 - z2,1,15  = 0
 c169: z2,1,15 - z2,1,16  = 0
 c170: - x2,25 + z2,2,0 - z2,2,1  = 0
 c171: - x2,26 + z2,2,1 - z2,2,2  = 0
 c172: - x2,27 + z2,2,2 - z2,2,3  = 0
 c173: x2,6 - x2,28 + z2,2,3 - z2,2,4  = 0
 c174: x2,7 - x2,29 + z2,2,4 - z2,2,5  = 0
 c175: x2,8 + z2,2,5 - z2,2,6  = 0
 c176: x2,9 + z2,2,6 - z2,2,7  = 0
 c177: x2,10 + z2,2,7 - z2,2,8  = 0
 c178: x2,11 + z2,2,8 - z2,2,9  = 0
 c179: - x2,12 + z2,2,9 - z2,2,10  = 0
 c180: - x2,13 + z2,2,10 - z2,2,11  = 0
 c181: - x2,14 + z2,2,11 - z2,2,12  = 0
 c182: - x2,15 + z2,2,12 - z2,2,13  = 0
 c183: - x2,16 + z2,2,13 - z2,2,14  = 0
 c184: - x2,17 + z2,2,14 - z2,2,15  = 0
 c185: z2,2,15 - z2,2,16  = 0
 c186: z2,0,18 + z2,1,16 + z2,2,16  = 1
 c187:  = 0
 c188: 180 x0,0 + 180 x0,1 + 180 x0,2 + 180 x0,3 + 180 x0,4 + 180 x0,5
       + 120 x0,6 + 120 x0,7 + 120 x0,8 + 120 x0,9 + 120 x0,10 + 120 x0,11
       + 60 x0,12 + 60 x0,13 + 60 x0,14 + 60 x0,15 + 60 x0,16 + 60 x0,17
       + 180 x0,18 + 180 x0,19 + 180 x0,20 + 180 x0,21 + 180 x0,22 + 180 x0,23
       + 120 x0,24 + 120 x0,25 + 120 x0,26 + 120 x0,27 + 120 x0,28 + 120 x0,29
       <= 1000
 c189: 180 x1,0 + 180 x1,1 + 180 x1,2 + 180 x1,3 + 180 x1,4 + 180 x1,5
       + 120 x1,6 + 120 x1,7 + 120 x1,8 + 120 x1,9 + 120 x1,10 + 120 x1,11
       + 60 x1,12 + 60 x1,13 + 60 x1,14 + 60 x1,15 + 60 x1,16 + 60 x1,17
       + 180 x1,18 + 180 x1,19 + 180 x1,20 + 180 x1,21 + 180 x1,22 + 180 x1,23
       + 120 x1,24 + 120 x1,25 + 120 x1,26 + 120 x1,27 + 120 x1,28 + 120 x1,29
       <= 1000
 c190: 180 x2,0 + 180 x2,1 + 180 x2,2 + 180 x2,3 + 180 x2,4 + 180 x2,5
       + 120 x2,6 + 120 x2,7 + 120 x2,8 + 120 x2,9 + 120 x2,10 + 120 x2,11
       + 60 x2,12 + 60 x2,13 + 60 x2,14 + 60 x2,15 + 60 x2,16 + 60 x2,17
       + 180 x2,18 + 180 x2,19 + 180 x2,20 + 180 x2,21 + 180 x2,22 + 180 x2,23
       + 120 x2,24 + 120 x2,25 + 120 x2,26 + 120 x2,27 + 120 x2,28 + 120 x2,29
       <= 1000
 c191: 180 x0,0 + 180 x0,1 + 180 x0,2 + 180 x0,3 + 180 x0,4 + 180 x0,5
       + 120 x0,6 + 120 x0,7 + 120 x0,8 + 120 x0,9 + 120 x0,10 + 120 x0,11
       + 60 x0,12 + 60 x0,13 + 60 x0,14 + 60 x0,15 + 60 x0,16 + 60 x0,17
       + 180 x0,18 + 180 x0,19 + 180 x0,20 + 180 x0,21 + 180 x0,22 + 180 x0,23
       + 120 x0,24 + 120 x0,25 + 120 x0,26 + 120 x0,27 + 120 x0,28 + 120 x0,29
       + 15 z0,0,0 + 15 z0,0,1 + 15 z0,0,2 + 15 z0,0,3 + 15 z0,0,4 + 225 z0,0,5
       + 15 z0,0,6 + 15 z0,0,7 + 15 z0,0,8 + 15 z0,0,9 + 15 z0,0,10
       + 45 z0,0,11 + 15 z0,0,12 + 15 z0,0,13 + 15 z0,0,14 + 15 z0,0,15
       + 15 z0,0,16 + 75 z0,0,17 + 60 z0,0,18 + 15 z0,1,0 + 15 z0,1,1
       + 15 z0,1,2 + 15 z0,1,3 + 15 z0,1,4 + 105 z0,1,5 + 15 z0,1,6 + 15 z0,1,7
       + 15 z0,1,8 + 15 z0,1,9 + 15 z0,1,10 + 15 z0,1,11 + 15 z0,1,12
       + 15 z0,1,13 + 15 z0,1,14 + 255 z0,1,15 + 60 z0,1,16 + 15 z0,2,0
       + 15 z0,2,1 + 15 z0,2,2 + 15 z0,2,3 + 15 z0,2,4 + 15 z0,2,5 + 15 z0,2,6
       + 15 z0,2,7 + 15 z0,2,8 + 45 z0,2,9 + 15 z0,2,10 + 15 z0,2,11
       + 15 z0,2,12 + 15 z0,2,13 + 15 z0,2,14 + 255 z0,2,15 + 60 z0,2,16
       <= 1300
 c192: 180 x1,0 + 180 x1,1 + 180 x1,2 + 180 x1,3 + 180 x1,4 + 180 x1,5
       + 120 x1,6 + 120 x1,7 + 120 x1,8 + 120 x1,9 + 120 x1,10 + 120 x1,11
       + 60 x1,12 + 60 x1,13 + 60 x1,14 + 60 x1,15 + 60 x1,16 + 60 x1,17
       + 180 x1,18 + 180 x1,19 + 180 x1,20 + 180 x1,21 + 180 x1,22 + 180 x1,23
       + 120 x1,24 + 120 x1,25 + 120 x1,26 + 120 x1,27 + 120 x1,28 + 120 x1,29
       + 15 z1,0,0 + 15 z1,0,1 + 15 z1,0,2 + 15 z1,0,3 + 15 z1,0,4 + 225 z1,0,5
       + 15 z1,0,6 + 15 z1,0,7 + 15 z1,0,8 + 15 z1,0,9 + 15 z1,0,10
       + 45 z1,0,11 + 15 z1,0,12 + 15 z1,0,13 + 15 z1,0,14 + 15 z1,0,15
       + 15 z1,0,16 + 75 z1,0,17 + 60 z1,0,18 + 15 z1,1,0 + 15 z1,1,1
       + 15 z1,1,2 + 15 z1,1,3 + 15 z1,1,4 + 105 z1,1,5 + 15 z1,1,6 + 15 z1,1,7
       + 15 z1,1,8 + 15 z1,1,9 + 15 z1,1,10 + 15 z1,1,11 + 15 z1,1,12
       + 15 z1,1,13 + 15 z1,1,14 + 255 z1,1,15 + 60 z1,1,16 + 15 z1,2,0
       + 15 z1,2,1 + 15 z1,2,2 + 15 z1,2,3 + 15 z1,2,4 + 15 z1,2,5 + 15 z1,2,6
       + 15 z1,2,7 + 15 z1,2,8 + 45 z1,2,9 + 15 z1,2,10 + 15 z1,2,11
       + 15 z1,2,12 + 15 z1,2,13 + 15 z1,2,14 + 255 z1,2,15 + 60 z1,2,16
       <= 1300
 c193: 180 x2,0 + 180 x2,1 + 180 x2,2 + 180 x2,3 + 180 x2,4 + 180 x2,5
       + 120 x2,6 + 120 x2,7 + 120 x2,8 + 120 x2,9 + 120 x2,10 + 120 x2,11
       + 60 x2,12 + 60 x2,13 + 60 x2,14 + 60 x2,15 + 60 x2,16 + 60 x2,17
       + 180 x2,18 + 180 x2,19 + 180 x2,20 + 180 x2,21 + 180 x2,22 + 180 x2,23
       + 120 x2,24 + 120 x2,25 + 120 x2,26 + 120 x2,27 + 120 x2,28 + 120 x2,29
       + 15 z2,0,0 + 15 z2,0,1 + 15 z2,0,2 + 15 z2,0,3 + 15 z2,0,4 + 225 z2,0,5
       + 15 z2,0,6 + 15 z2,0,7 + 15 z2,0,8 + 15 z2,0,9 + 15 z2,0,10
       + 45 z2,0,11 + 15 z2,0,12 + 15 z2,0,13 + 15 z2,0,14 + 15 z2,0,15
       + 15 z2,0,16 + 75 z2,0,17 + 60 z2,0,18 + 15 z2,1,0 + 15 z2,1,1
       + 15 z2,1,2 + 15 z2,1,3 + 15 z2,1,4 + 105 z2,1,5 + 15 z2,1,6 + 15 z2,1,7
       + 15 z2,1,8 + 15 z2,1,9 + 15 z2,1,10 + 15 z2,1,11 + 15 z2,1,12
       + 15 z2,1,13 + 15 z2,1,14 + 255 z2,1,15 + 60 z2,1,16 + 15 z2,2,0
       + 15 z2,2,1 + 15 z2,2,2 + 15 z2,2,3 + 15 z2,2,4 + 15 z2,2,5 + 15 z2,2,6
       + 15 z2,2,7 + 15 z2,2,8 + 45 z2,2,9 + 15 z2,2,10 + 15 z2,2,11
       + 15 z2,2,12 + 15 z2,2,13 + 15 z2,2,14 + 255 z2,2,15 + 60 z2,2,16
       <= 1300
 c194: x0,0 + x0,1 + x0,2 + x0,3 + x0,4 + x0,5 + x0,6 + x0,7 + x0,8 + x0,9
       + x0,10 + x0,11 + x0,12 + x0,13 + x0,14 + x0,15 + x0,16 + x0,17 + x0,18
       + x0,19 + x0,20 + x0,21 + x0,22 + x0,23 + x0,24 + x0,25 + x0,26 + x0,27
       + x0,28 + x0,29 <= 6
 c195: x1,0 + x1,1 + x1,2 + x1,3 + x1,4 + x1,5 + x1,6 + x1,7 + x1,8 + x1,9
       + x1,10 + x1,11 + x1,12 + x1,13 + x1,14 + x1,15 + x1,16 + x1,17 + x1,18
       + x1,19 + x1,20 + x1,21 + x1,22 + x1,23 + x1,24 + x1,25 + x1,26 + x1,27
       + x1,28 + x1,29 <= 6
 c196: x2,0 + x2,1 + x2,2 + x2,3 + x2,4 + x2,5 + x2,6 + x2,7 + x2,8 + x2,9
       + x2,10 + x2,11 + x2,12 + x2,13 + x2,14 + x2,15 + x2,16 + x2,17 + x2,18
       + x2,19 + x2,20 + x2,21 + x2,22 + x2,23 + x2,24 + x2,25 + x2,26 + x2,27
       + x2,28 + x2,29 <= 6
 q1:  [ x0,3 * x0,18 ] <= 0
 q2:  [ x0,18 * x0,27 ] <= 0
 q3:  [ x0,4 * x0,18 ] <= 0
 q4:  [ x0,4 * x0,19 ] <= 0
 q5:  [ x0,18 * x0,28 ] <= 0
 q6:  [ x0,19 * x0,28 ] <= 0
 q7:  [ x0,5 * x0,19 ] <= 0
 q8:  [ x0,5 * x0,20 ] <= 0
 q9:  [ x0,19 * x0,29 ] <= 0
 q10: [ x0,20 * x0,29 ] <= 0
 q11: [ x0,6 * x0,28 ] <= 0
 q12: [ x0,6 * x0,29 ] <= 0
 q13: [ x0,7 * x0,29 ] <= 0
 q14: [ x1,3 * x1,18 ] <= 0
 q15: [ x1,18 * x1,27 ] <= 0
 q16: [ x1,4 * x1,18 ] <= 0
 q17: [ x1,4 * x1,19 ] <= 0
 q18: [ x1,18 * x1,28 ] <= 0
 q19: [ x1,19 * x1,28 ] <= 0
 q20: [ x1,5 * x1,19 ] <= 0
 q21: [ x1,5 * x1,20 ] <= 0
 q22: [ x1,19 * x1,29 ] <= 0
 q23: [ x1,20 * x1,29 ] <= 0
 q24: [ x1,6 * x1,28 ] <= 0
 q25: [ x1,6 * x1,29 ] <= 0
 q26: [ x1,7 * x1,29 ] <= 0
 q27: [ x2,3 * x2,18 ] <= 0
 q28: [ x2,18 * x2,27 ] <= 0
 q29: [ x2,4 * x2,18 ] <= 0
 q30: [ x2,4 * x2,19 ] <= 0
 q31: [ x2,18 * x2,28 ] <= 0
 q32: [ x2,19 * x2,28 ] <= 0
 q33: [ x2,5 * x2,19 ] <= 0
 q34: [ x2,5 * x2,20 ] <= 0
 q35: [ x2,19 * x2,29 ] <= 0
 q36: [ x2,20 * x2,29 ] <= 0
 q37: [ x2,6 * x2,28 ] <= 0
 q38: [ x2,6 * x2,29 ] <= 0
 q39: [ x2,7 * x2,29 ] <= 0
Bounds
 0 <= x0,0 <= 1
 0 <= x0,1 <= 1
 0 <= x0,2 <= 1
 0 <= x0,3 <= 1
 0 <= x0,4 <= 1
 0 <= x0,5 <= 1
 0 <= x0,6 <= 1
 0 <= x0,7 <= 1
 0 <= x0,8 <= 1
 0 <= x0,9 <= 1
 0 <= x0,10 <= 1
 0 <= x0,11 <= 1
 0 <= x0,12 <= 1
 0 <= x0,13 <= 1
 0 <= x0,14 <= 1
 0 <= x0,15 <= 1
 0 <= x0,16 <= 1
 0 <= x0,17 <= 1
 0 <= x0,18 <= 1
 0 <= x0,19 <= 1
 0 <= x0,20 <= 1
 0 <= x0,21 <= 1
 0 <= x0,22 <= 1
 0 <= x0,23 <= 1
 0 <= x0,24 <= 1
 0 <= x0,25 <= 1
 0 <= x0,26 <= 1
 0 <= x0,27 <= 1
 0 <= x0,28 <= 1
 0 <= x0,29 <= 1
 0 <= x1,0 <= 1
 0 <= x1,1 <= 1
 0 <= x1,2 <= 1
 0 <= x1,3 <= 1
 0 <= x1,4 <= 1
 0 <= x1,5 <= 1
 0 <= x1,6 <= 1
 0 <= x1,7 <= 1
 0 <= x1,8 <= 1
 0 <= x1,9 <= 1
 0 <= x1,10 <= 1
 0 <= x1,11 <= 1
 0 <= x1,12 <= 1
 0 <= x1,13 <= 1
 0 <= x1,14 <= 1
 0 <= x1,15 <= 1
 0 <= x1,16 <= 1
 0 <= x1,17 <= 1
 0 <= x1,18 <= 1
 0 <= x1,19 <= 1
 0 <= x1,20 <= 1
 0 <= x1,21 <= 1
 0 <= x1,22 <= 1
 0 <= x1,23 <= 1
 0 <= x1,24 <= 1
 0 <= x1,25 <= 1
 0 <= x1,26 <= 1
 0 <= x1,27 <= 1
 0 <= x1,28 <= 1
 0 <= x1,29 <= 1
 0 <= x2,0 <= 1
 0 <= x2,1 <= 1
 0 <= x2,2 <= 1
 0 <= x2,3 <= 1
 0 <= x2,4 <= 1
 0 <= x2,5 <= 1
 0 <= x2,6 <= 1
 0 <= x2,7 <= 1
 0 <= x2,8 <= 1
 0 <= x2,9 <= 1
 0 <= x2,10 <= 1
 0 <= x2,11 <= 1
 0 <= x2,12 <= 1
 0 <= x2,13 <= 1
 0 <= x2,14 <= 1
 0 <= x2,15 <= 1
 0 <= x2,16 <= 1
 0 <= x2,17 <= 1
 0 <= x2,18 <= 1
 0 <= x2,19 <= 1
 0 <= x2,20 <= 1
 0 <= x2,21 <= 1
 0 <= x2,22 <= 1
 0 <= x2,23 <= 1
 0 <= x2,24 <= 1
 0 <= x2,25 <= 1
 0 <= x2,26 <= 1
 0 <= x2,27 <= 1
 0 <= x2,28 <= 1
 0 <= x2,29 <= 1
 0 <= y0 <= 1
 0 <= y1 <= 1
 0 <= y2 <= 1
 0 <= y3 <= 1
 0 <= y4 <= 1
 0 <= z0,0,0 <= 1
 0 <= z0,0,1 <= 1
 0 <= z0,0,2 <= 1
 0 <= z0,0,3 <= 1
 0 <= z0,0,4 <= 1
 0 <= z0,0,5 <= 1
 0 <= z0,0,6 <= 1
 0 <= z0,0,7 <= 1
 0 <= z0,0,8 <= 1
 0 <= z0,0,9 <= 1
 0 <= z0,0,10 <= 1
 0 <= z0,0,11 <= 1
 0 <= z0,0,12 <= 1
 0 <= z0,0,13 <= 1
 0 <= z0,0,14 <= 1
 0 <= z0,0,15 <= 1
 0 <= z0,0,16 <= 1
 0 <= z0,0,17 <= 1
 0 <= z0,0,18 <= 1
 0 <= z0,1,0 <= 1
 0 <= z0,1,1 <= 1
 0 <= z0,1,2 <= 1
 0 <= z0,1,3 <= 1
 0 <= z0,1,4 <= 1
 0 <= z0,1,5 <= 1
 0 <= z0,1,6 <= 1
 0 <= z0,1,7 <= 1
 0 <= z0,1,8 <= 1
 0 <= z0,1,9 <= 1
 0 <= z0,1,10 <= 1
 0 <= z0,1,11 <= 1
 0 <= z0,1,12 <= 1
 0 <= z0,1,13 <= 1
 0 <= z0,1,14 <= 1
 0 <= z0,1,15 <= 1
 0 <= z0,1,16 <= 1
 0 <= z0,2,0 <= 1
 0 <= z0,2,1 <= 1
 0 <= z0,2,2 <= 1
 0 <= z0,2,3 <= 1
 0 <= z0,2,4 <= 1
 0 <= z0,2,5 <= 1
 0 <= z0,2,6 <= 1
 0 <= z0,2,7 <= 1
 0 <= z0,2,8 <= 1
 0 <= z0,2,9 <= 1
 0 <= z0,2,10 <= 1
 0 <= z0,2,11 <= 1
 0 <= z0,2,12 <= 1
 0 <= z0,2,13 <= 1
 0 <= z0,2,14 <= 1
 0 <= z0,2,15 <= 1
 0 <= z0,2,16 <= 1
 0 <= z1,0,0 <= 1
 0 <= z1,0,1 <= 1
 0 <= z1,0,2 <= 1
 0 <= z1,0,3 <= 1
 0 <= z1,0,4 <= 1
 0 <= z1,0,5 <= 1
 0 <= z1,0,6 <= 1
 0 <= z1,0,7 <= 1
 0 <= z1,0,8 <= 1
 0 <= z1,0,9 <= 1
 0 <= z1,0,10 <= 1
 0 <= z1,0,11 <= 1
 0 <= z1,0,12 <= 1
 0 <= z1,0,13 <= 1
 0 <= z1,0,14 <= 1
 0 <= z1,0,15 <= 1
 0 <= z1,0,16 <= 1
 0 <= z1,0,17 <= 1
 0 <= z1,0,18 <= 1
 0 <= z1,1,0 <= 1
 0 <= z1,1,1 <= 1
 0 <= z1,1,2 <= 1
 0 <= z1,1,3 <= 1
 0 <= z1,1,4 <= 1
 0 <= z1,1,5 <= 1
 0 <= z1,1,6 <= 1
 0 <= z1,1,7 <= 1
 0 <= z1,1,8 <= 1
 0 <= z1,1,9 <= 1
 0 <= z1,1,10 <= 1
 0 <= z1,1,11 <= 1
 0 <= z1,1,12 <= 1
 0 <= z1,1,13 <= 1
 0 <= z1,1,14 <= 1
 0 <= z1,1,15 <= 1
 0 <= z1,1,16 <= 1
 0 <= z1,2,0 <= 1
 0 <= z1,2,1 <= 1
 0 <= z1,2,2 <= 1
 0 <= z1,2,3 <= 1
 0 <= z1,2,4 <= 1
 0 <= z1,2,5 <= 1
 0 <= z1,2,6 <= 1
 0 <= z1,2,7 <= 1
 0 <= z1,2,8 <= 1
 0 <= z1,2,9 <= 1
 0 <= z1,2,10 <= 1
 0 <= z1,2,11 <= 1
 0 <= z1,2,12 <= 1
 0 <= z1,2,13 <= 1
 0 <= z1,2,14 <= 1
 0 <= z1,2,15 <= 1
 0 <= z1,2,16 <= 1
 0 <= z2,0,0 <= 1
 0 <= z2,0,1 <= 1
 0 <= z2,0,2 <= 1
 0 <= z2,0,3 <= 1
 0 <= z2,0,4 <= 1
 0 <= z2,0,5 <= 1
 0 <= z2,0,6 <= 1
 0 <= z2,0,7 <= 1
 0 <= z2,0,8 <= 1
 0 <= z2,0,9 <= 1
 0 <= z2,0,10 <= 1
 0 <= z2,0,11 <= 1
 0 <= z2,0,12 <= 1
 0 <= z2,0,13 <= 1
 0 <= z2,0,14 <= 1
 0 <= z2,0,15 <= 1
 0 <= z2,0,16 <= 1
 0 <= z2,0,17 <= 1
 0 <= z2,0,18 <= 1
 0 <= z2,1,0 <= 1
 0 <= z2,1,1 <= 1
 0 <= z2,1,2 <= 1
 0 <= z2,1,3 <= 1
 0 <= z2,1,4 <= 1
 0 <= z2,1,5 <= 1
 0 <= z2,1,6 <= 1
 0 <= z2,1,7 <= 1
 0 <= z2,1,8 <= 1
 0 <= z2,1,9 <= 1
 0 <= z2,1,10 <= 1
 0 <= z2,1,11 <= 1
 0 <= z2,1,12 <= 1
 0 <= z2,1,13 <= 1
 0 <= z2,1,14 <= 1
 0 <= z2,1,15 <= 1
 0 <= z2,1,16 <= 1
 0 <= z2,2,0 <= 1
 0 <= z2,2,1 <= 1
 0 <= z2,2,2 <= 1
 0 <= z2,2,3 <= 1
 0 <= z2,2,4 <= 1
 0 <= z2,2,5 <= 1
 0 <= z2,2,6 <= 1
 0 <= z2,2,7 <= 1
 0 <= z2,2,8 <= 1
 0 <= z2,2,9 <= 1
 0 <= z2,2,10 <= 1
 0 <= z2,2,11 <= 1
 0 <= z2,2,12 <= 1
 0 <= z2,2,13 <= 1
 0 <= z2,2,14 <= 1
 0 <= z2,2,15 <= 1
 0 <= z2,2,16 <= 1
Generals
 x0,0  x0,1  x0,2  x0,3  x0,4  x0,5  x0,6  x0,7  x0,8  x0,9  x0,10  x0,11 
 x0,12  x0,13  x0,14  x0,15  x0,16  x0,17  x0,18  x0,19  x0,20  x0,21  x0,22 
 x0,23  x0,24  x0,25  x0,26  x0,27  x0,28  x0,29  x1,0  x1,1  x1,2  x1,3  x1,4 
 x1,5  x1,6  x1,7  x1,8  x1,9  x1,10  x1,11  x1,12  x1,13  x1,14  x1,15  x1,16 
 x1,17  x1,18  x1,19  x1,20  x1,21  x1,22  x1,23  x1,24  x1,25  x1,26  x1,27 
 x1,28  x1,29  x2,0  x2,1  x2,2  x2,3  x2,4  x2,5  x2,6  x2,7  x2,8  x2,9 
 x2,10  x2,11  x2,12  x2,13  x2,14  x2,15  x2,16  x2,17  x2,18  x2,19  x2,20 
 x2,21  x2,22  x2,23  x2,24  x2,25  x2,26  x2,27  x2,28  x2,29  y0  y1  y2  y3 
 y4  z0,0,0  z0,0,1  z0,0,2  z0,0,3  z0,0,4  z0,0,5  z0,0,6  z0,0,7  z0,0,8 
 z0,0,9  z0,0,10  z0,0,11  z0,0,12  z0,0,13  z0,0,14  z0,0,15  z0,0,16 
 z0,0,17  z0,0,18  z0,1,0  z0,1,1  z0,1,2  z0,1,3  z0,1,4  z0,1,5  z0,1,6 
 z0,1,7  z0,1,8  z0,1,9  z0,1,10  z0,1,11  z0,1,12  z0,1,13  z0,1,14  z0,1,15 
 z0,1,16  z0,2,0  z0,2,1  z0,2,2  z0,2,3  z0,2,4  z0,2,5  z0,2,6  z0,2,7 
 z0,2,8  z0,2,9  z0,2,10  z0,2,11  z0,2,12  z0,2,13  z0,2,14  z0,2,15  z0,2,16 
 z1,0,0  z1,0,1  z1,0,2  z1,0,3  z1,0,4  z1,0,5  z1,0,6  z1,0,7  z1,0,8 
 z1,0,9  z1,0,10  z1,0,11  z1,0,12  z1,0,13  z1,0,14  z1,0,15  z1,0,16 
 z1,0,17  z1,0,18  z1,1,0  z1,1,1  z1,1,2  z1,1,3  z1,1,4  z1,1,5  z1,1,6 
 z1,1,7  z1,1,8  z1,1,9  z1,1,10  z1,1,11  z1,1,12  z1,1,13  z1,1,14  z1,1,15 
 z1,1,16  z1,2,0  z1,2,1  z1,2,2  z1,2,3  z1,2,4  z1,2,5  z1,2,6  z1,2,7 
 z1,2,8  z1,2,9  z1,2,10  z1,2,11  z1,2,12  z1,2,13  z1,2,14  z1,2,15  z1,2,16 
 z2,0,0  z2,0,1  z2,0,2  z2,0,3  z2,0,4  z2,0,5  z2,0,6  z2,0,7  z2,0,8 
 z2,0,9  z2,0,10  z2,0,11  z2,0,12  z2,0,13  z2,0,14  z2,0,15  z2,0,16 
 z2,0,17  z2,0,18  z2,1,0  z2,1,1  z2,1,2  z2,1,3  z2,1,4  z2,1,5  z2,1,6 
 z2,1,7  z2,1,8  z2,1,9  z2,1,10  z2,1,11  z2,1,12  z2,1,13  z2,1,14  z2,1,15 
 z2,1,16  z2,2,0  z2,2,1  z2,2,2  z2,2,3  z2,2,4  z2,2,5  z2,2,6  z2,2,7 
 z2,2,8  z2,2,9  z2,2,10  z2,2,11  z2,2,12  z2,2,13  z2,2,14  z2,2,15  z2,2,16 
End
